50
    1   742   781
    2   442   942
    3   968   856
    4   168   925
    5   377   714
    6   357   763
    7   217    75
    8   919   541
    9   694   819
   10   134   812
   11   487   825
   12   127   237
   13   299   810
   14   430   886
   15   359   306
   16  1000   846
   17    30   707
   18   238   618
   19   386   679
   20   669   208
   21   753    51
   22    59   953
   23   140   738
   24   596  1000
   25    57   682
   26   570   970
   27   384   824
   28   747   657
   29   586   315
   30    28   497
   31   861   919
   32   956   677
   33   524   785
   34   475   335
   35   339   306
   36   353   515
   37   785    98
   38   483   614
   39   958   202
   40   847   680
   41   868   853
   42   129   563
   43    49   948
   44   303   159
   45   378   125
   46   311   156
   47   836   471
   48   184   915
   49   412   981
   50   437   202
5090
